NAME: test1966
TYPE: TSP
DIMENSION: 11
EDGE_WEIGHT_TYPE: EUC_2D
NODE_COORD_SECTION
1 44.7915737145998 90.9715283277299
2 5.545156387537364 94.88334109908465
3 20.964564284497722 67.08877253238433
4 73.07412345521098 86.82388633979205
5 41.264723982926355 17.44149733955731
6 34.914878246919216 28.722374531973983
7 81.43690980872604 96.43358561277593
8 75.05323024940465 19.170073815117007
9 37.42145400270572 8.84350303930722
10 4.82719390946399 93.78306409677654
11 4.685752446492364 39.825776114627345
EOF
